NAME: tsp20-8
TYPE: TSP
DIMENSION: 20
EDGE_WEIGHT_TYPE: EUC_2D
NODE_COORD_SECTION
0 53 87
1 54 66
2 71 47
3 73 93
4 84 6
5 19 20
6 4 30
7 67 79
8 96 9
9 58 69
10 71 11
11 94 18
12 33 61
13 4 21
14 17 35
15 0 16
16 22 58
17 82 76
18 43 2
19 100 85
EOF